pMedian	pDispersion
16587.0	33.0
20431.0	38.0
14203.0	30.0
15142.0	31.0
9481.0	9.0
18981.0	36.0
9567.0	10.0
19360.0	37.0
15658.0	32.0
16885.0	34.0
9707.0	12.0
20815.0	39.0
17940.0	35.0
9631.0	11.0
14067.0	29.0
13956.0	27.0
13839.0	26.0
13637.0	25.0
11863.0	19.0
11219.0	17.0
9886.0	13.0
12840.0	22.0
12978.0	23.0
10612.0	16.0
9451.0	8.0
12433.0	21.0
10015.0	14.0
10346.0	15.0
13380.0	24.0
12078.0	20.0
11483.0	18.0
